Traveling Salesman Problem/TSP_generados/Aleatorio1621103426_14.tsp
NAME: Aleatorio1621103426_14.tsp
COMMENT: Randomly generated scenario
TYPE: TSP
DIMENSION: 14
EDGE_WEIGHT_TYPE: ATT
NODE_COORD_SECTION
1 24.57 2.73
2 26.44 13.98
3 24.45 17.91
4 26.05 27.22
5 17.86 41.39
6 21.04 40.68
7 18.41 28.73
8 18.01 32.31
9 5.46 22.63
10 9.9 41.78
11 35.13 41.91
12 14.88 27.86
13 0.83 31.66
14 27.36 47.9
