Traveling Salesman Problem/TSP_generados/Aleatorio1621103426_14.opt.tour
NAME: Aleatorio1621103426_14.opt.tour
COMMENT: Optimal solution for Aleatorio1621103426_14 (143.43423334740666)
TYPE: TOUR
DIMENSION: 14
TOUR_SECTION
1 2 3 4 11 14 6 5 10 13 9 12 8 7
-1
EOF
